
-37.0
-17.3
-16.9
-16.9
-16.8
-16.5
-16.5
-16.2
-16.2
-16.2
-16.1
-15.9
-15.9
-15.9
-15.9
-15.8
-15.6
-15.5
-15.4
-15.4
-15.4
-15.4
-15.4
-15.4
-15.4
-15.4
-15.4
-15.4
-17.05
-16.85
-16.75
-16.7
-16.55
-16.35
-16.15
-16.05
-15.9
-15.85
-15.85
-15.85
-15.6
-15.3
-15.05
-15.0
-15.0
-14.8
-14.8
-14.7
-14.7
-14.7
-17.55
-16.95
-16.65
-16.5
-16.35
-16.25
-16.0
-16.0
-16.0
-15.9
-15.85
-15.75
-15.75
-15.7
-15.65
-15.6
-15.3
-15.1
-14.95
-14.95
-14.95
-14.95
-14.95
-14.95
-14.95
-14.95
-14.95